c generated by sgen
p cnf 81 172
-2 -3 -4 0
-1 -3 -4 0
-1 -2 -4 0
-1 -2 -3 0
-6 -7 -8 0
-5 -7 -8 0
-5 -6 -8 0
-5 -6 -7 0
-10 -11 -12 0
-9 -11 -12 0
-9 -10 -12 0
-9 -10 -11 0
-14 -15 -16 0
-13 -15 -16 0
-13 -14 -16 0
-13 -14 -15 0
-18 -19 -20 0
-17 -19 -20 0
-17 -18 -20 0
-17 -18 -19 0
-22 -23 -24 0
-21 -23 -24 0
-21 -22 -24 0
-21 -22 -23 0
-26 -27 -28 0
-25 -27 -28 0
-25 -26 -28 0
-25 -26 -27 0
-30 -31 -32 0
-29 -31 -32 0
-29 -30 -32 0
-29 -30 -31 0
-34 -35 -36 0
-33 -35 -36 0
-33 -34 -36 0
-33 -34 -35 0
-38 -39 -40 0
-37 -39 -40 0
-37 -38 -40 0
-37 -38 -39 0
-42 -43 -44 0
-41 -43 -44 0
-41 -42 -44 0
-41 -42 -43 0
-46 -47 -48 0
-45 -47 -48 0
-45 -46 -48 0
-45 -46 -47 0
-50 -51 -52 0
-49 -51 -52 0
-49 -50 -52 0
-49 -50 -51 0
-54 -55 -56 0
-53 -55 -56 0
-53 -54 -56 0
-53 -54 -55 0
-58 -59 -60 0
-57 -59 -60 0
-57 -58 -60 0
-57 -58 -59 0
-62 -63 -64 0
-61 -63 -64 0
-61 -62 -64 0
-61 -62 -63 0
-66 -67 -68 0
-65 -67 -68 0
-65 -66 -68 0
-65 -66 -67 0
-70 -71 -72 0
-69 -71 -72 0
-69 -70 -72 0
-69 -70 -71 0
-74 -75 -76 0
-73 -75 -76 0
-73 -74 -76 0
-73 -74 -75 0
-77 -78 -79 0
-77 -78 -80 0
-77 -78 -81 0
-77 -79 -80 0
-77 -79 -81 0
-77 -80 -81 0
-78 -79 -80 0
-78 -79 -81 0
-78 -80 -81 0
-79 -80 -81 0
32 50 76 0
48 50 76 0
48 32 76 0
48 32 50 0
21 6 75 0
37 6 75 0
37 21 75 0
37 21 6 0
59 10 65 0
56 10 65 0
56 59 65 0
56 59 10 0
34 46 66 0
1 46 66 0
1 34 66 0
1 34 46 0
60 15 26 0
3 15 26 0
3 60 26 0
3 60 15 0
71 55 47 0
24 55 47 0
24 71 47 0
24 71 55 0
80 39 63 0
58 39 63 0
58 80 63 0
58 80 39 0
14 23 78 0
49 23 78 0
49 14 78 0
49 14 23 0
79 7 45 0
25 7 45 0
25 79 45 0
25 79 7 0
4 8 81 0
44 8 81 0
44 4 81 0
44 4 8 0
40 69 20 0
30 69 20 0
30 40 20 0
30 40 69 0
2 74 11 0
18 74 11 0
18 2 11 0
18 2 74 0
51 5 67 0
70 5 67 0
70 51 67 0
70 51 5 0
29 9 28 0
33 9 28 0
33 29 28 0
33 29 9 0
22 35 57 0
43 35 57 0
43 22 57 0
43 22 35 0
54 41 31 0
62 41 31 0
62 54 31 0
62 54 41 0
68 17 27 0
64 17 27 0
64 68 27 0
64 68 17 0
42 38 12 0
13 38 12 0
13 42 12 0
13 42 38 0
16 61 73 0
72 61 73 0
72 16 73 0
72 16 61 0
52 77 36 0
52 77 53 0
52 77 19 0
52 36 53 0
52 36 19 0
52 53 19 0
77 36 53 0
77 36 19 0
77 53 19 0
36 53 19 0
